p tw 172 183
1 2
2 85
3 14
3 36
4 5
5 6
6 7
7 8
8 9
9 10
10 11
11 12
12 13
13 15
14 25
15 16
16 17
17 132
18 19
19 20
19 74
20 21
21 22
22 23
23 24
24 26
24 74
25 36
26 27
27 28
28 29
29 30
29 34
30 31
31 32
32 33
33 74
34 35
35 37
36 47
37 38
38 39
39 40
40 41
40 43
41 42
42 48
43 44
44 45
45 46
46 48
47 58
48 49
49 50
50 51
51 52
52 53
53 54
53 71
54 55
55 56
56 57
57 59
58 69
59 60
60 61
60 63
61 62
62 63
63 64
64 65
65 66
66 67
67 68
68 70
69 80
70 74
71 72
72 73
73 74
74 75
75 76
76 77
77 78
78 79
79 81
80 83
81 82
83 84
84 86
85 96
86 87
87 88
88 89
89 90
90 91
91 92
92 93
93 94
94 95
95 97
96 107
97 98
98 99
99 100
100 101
101 102
102 103
103 104
104 105
105 106
106 108
107 118
108 109
109 110
110 111
111 112
112 113
113 114
113 74
114 115
115 116
116 117
116 120
117 119
118 129
119 124
120 121
121 122
122 123
123 124
124 125
125 126
126 127
127 128
127 132
128 130
129 140
130 131
131 132
132 133
133 134
134 135
135 136
136 137
137 138
138 139
138 18
139 141
140 151
141 142
142 143
143 144
144 145
145 146
146 147
147 148
148 149
149 150
150 152
151 162
152 153
153 154
154 155
155 156
156 157
157 158
157 166
158 159
159 160
160 161
161 163
162 3
163 164
164 165
165 166
166 167
167 168
168 169
169 170
170 171
171 172
172 4
